% Instancia generada para Grupo 5
% Diámetros: [75, 100, 150] mm
% Capacidades: [795, 1414, 3181] l/min
% Demanda total: 2056 l/min
% Costos tipo a: 347, tipo b: 376
% Semilla: 233804

nP = 1;
nT = 7;
nC1 = 9;
nC2 = 19;
N = 36;

nA = 241;
arc_from = [1, 1, 1, 1, 1, 1, 1, 2, 2, 2, 2, 2, 2, 2, 2, 2, 3, 3, 3, 3, 3, 3, 3, 3, 3, 4, 4, 4, 4, 4, 4, 4, 4, 4, 5, 5, 5, 5, 5, 5, 5, 5, 5, 6, 6, 6, 6, 6, 6, 6, 6, 6, 7, 7, 7, 7, 7, 7, 7, 7, 7, 8, 8, 8, 8, 8, 8, 8, 8, 8, 9, 9, 9, 9, 9, 9, 9, 9, 9, 9, 9, 9, 9, 9, 9, 9, 9, 9, 9, 10, 10, 10, 10, 10, 10, 10, 10, 10, 10, 10, 10, 10, 10, 10, 10, 10, 10, 10, 11, 11, 11, 11, 11, 11, 11, 11, 11, 11, 11, 11, 11, 11, 11, 11, 11, 11, 11, 12, 12, 12, 12, 12, 12, 12, 12, 12, 12, 12, 12, 12, 12, 12, 12, 12, 12, 12, 13, 13, 13, 13, 13, 13, 13, 13, 13, 13, 13, 13, 13, 13, 13, 13, 13, 13, 13, 14, 14, 14, 14, 14, 14, 14, 14, 14, 14, 14, 14, 14, 14, 14, 14, 14, 14, 14, 15, 15, 15, 15, 15, 15, 15, 15, 15, 15, 15, 15, 15, 15, 15, 15, 15, 15, 15, 16, 16, 16, 16, 16, 16, 16, 16, 16, 16, 16, 16, 16, 16, 16, 16, 16, 16, 16, 17, 17, 17, 17, 17, 17, 17, 17, 17, 17, 17, 17, 17, 17, 17, 17, 17, 17, 17];
arc_to   = [2, 3, 4, 5, 6, 7, 8, 9, 10, 11, 12, 13, 14, 15, 16, 17, 9, 10, 11, 12, 13, 14, 15, 16, 17, 9, 10, 11, 12, 13, 14, 15, 16, 17, 9, 10, 11, 12, 13, 14, 15, 16, 17, 9, 10, 11, 12, 13, 14, 15, 16, 17, 9, 10, 11, 12, 13, 14, 15, 16, 17, 9, 10, 11, 12, 13, 14, 15, 16, 17, 18, 19, 20, 21, 22, 23, 24, 25, 26, 27, 28, 29, 30, 31, 32, 33, 34, 35, 36, 18, 19, 20, 21, 22, 23, 24, 25, 26, 27, 28, 29, 30, 31, 32, 33, 34, 35, 36, 18, 19, 20, 21, 22, 23, 24, 25, 26, 27, 28, 29, 30, 31, 32, 33, 34, 35, 36, 18, 19, 20, 21, 22, 23, 24, 25, 26, 27, 28, 29, 30, 31, 32, 33, 34, 35, 36, 18, 19, 20, 21, 22, 23, 24, 25, 26, 27, 28, 29, 30, 31, 32, 33, 34, 35, 36, 18, 19, 20, 21, 22, 23, 24, 25, 26, 27, 28, 29, 30, 31, 32, 33, 34, 35, 36, 18, 19, 20, 21, 22, 23, 24, 25, 26, 27, 28, 29, 30, 31, 32, 33, 34, 35, 36, 18, 19, 20, 21, 22, 23, 24, 25, 26, 27, 28, 29, 30, 31, 32, 33, 34, 35, 36, 18, 19, 20, 21, 22, 23, 24, 25, 26, 27, 28, 29, 30, 31, 32, 33, 34, 35, 36];

demand = [0, 0, 0, 0, 0, 0, 0, 0, 76, 97, 99, 97, 76, 47, 63, 100, 87, 82, 98, 59, 60, 62, 79, 46, 91, 47, 64, 87, 58, 73, 64, 50, 77, 68, 90, 59];

install_cost = array2d(1..241, 1..3, [50, 24, 78, 20, 24, 32, 20, 24, 78, 50, 24, 78, 20, 24, 78, 50, 62, 32, 50, 24, 78, 50, 62, 78, 20, 62, 78, 20, 24, 78, 20, 24, 78, 20, 62, 32, 50, 24, 32, 20, 24, 78, 50, 62, 32, 20, 62, 32, 20, 24, 32, 50, 62, 32, 20, 62, 78, 50, 62, 32, 50, 24, 78, 50, 24, 78, 50, 62, 32, 50, 24, 78, 50, 24, 32, 50, 24, 32, 50, 62, 78, 50, 62, 78, 20, 24, 32, 20, 24, 78, 20, 62, 78, 50, 62, 32, 20, 24, 78, 50, 62, 78, 20, 24, 32, 20, 24, 32, 20, 24, 32, 50, 24, 78, 20, 62, 32, 50, 62, 32, 20, 62, 78, 20, 24, 78, 20, 62, 78, 50, 62, 78, 20, 24, 32, 50, 62, 32, 20, 24, 32, 50, 62, 78, 50, 24, 32, 20, 62, 78, 50, 24, 32, 20, 24, 78, 50, 24, 78, 50, 62, 32, 50, 24, 32, 50, 62, 78, 50, 24, 32, 20, 24, 78, 20, 24, 32, 50, 62, 78, 50, 62, 32, 20, 62, 78, 50, 24, 78, 20, 24, 78, 50, 24, 78, 50, 62, 32, 50, 62, 78, 20, 24, 78, 20, 62, 32, 50, 24, 78, 20, 24, 32, 20, 24, 32, 50, 62, 78, 50, 24, 32, 20, 62, 32, 20, 62, 78, 20, 62, 32, 20, 62, 78, 50, 62, 78, 50, 62, 78, 50, 24, 78, 50, 24, 32, 20, 24, 78, 20, 62, 32, 50, 24, 78, 20, 24, 78, 50, 62, 78, 20, 62, 32, 50, 24, 32, 20, 62, 32, 20, 24, 32, 50, 62, 32, 50, 62, 78, 20, 62, 32, 50, 62, 78, 20, 24, 78, 50, 62, 78, 50, 62, 78, 50, 62, 32, 20, 62, 32, 50, 62, 78, 20, 62, 78, 20, 62, 78, 20, 24, 78, 50, 62, 78, 20, 24, 78, 20, 62, 32, 50, 62, 78, 50, 24, 32, 20, 62, 32, 20, 24, 32, 20, 62, 78, 50, 24, 32, 20, 62, 32, 50, 62, 78, 50, 24, 32, 20, 62, 78, 50, 62, 32, 50, 62, 32, 50, 24, 32, 20, 62, 32, 50, 24, 32, 20, 24, 78, 50, 24, 78, 20, 62, 32, 20, 62, 78, 50, 62, 78, 20, 62, 32, 50, 24, 32, 20, 24, 78, 20, 62, 32, 50, 62, 32, 50, 62, 32, 20, 62, 78, 20, 24, 78, 50, 24, 78, 50, 62, 78, 20, 24, 32, 20, 24, 78, 20, 62, 32, 20, 62, 32, 20, 24, 78, 20, 24, 32, 50, 24, 32, 50, 62, 78, 50, 62, 78, 20, 62, 78, 50, 24, 32, 50, 62, 32, 20, 62, 78, 20, 24, 78, 50, 62, 32, 20, 62, 78, 20, 62, 78, 50, 24, 32, 50, 62, 32, 50, 62, 78, 50, 62, 78, 20, 62, 32, 20, 62, 78, 20, 24, 78, 50, 62, 32, 20, 62, 78, 20, 62, 32, 20, 62, 78, 20, 24, 78, 50, 24, 78, 50, 24, 78, 50, 62, 32, 20, 24, 32, 50, 24, 78, 50, 24, 32, 20, 62, 78, 50, 24, 32, 20, 62, 78, 20, 24, 32, 20, 62, 32, 20, 24, 32, 50, 62, 32, 50, 62, 78, 50, 24, 78, 50, 24, 32, 20, 24, 78, 20, 24, 32, 20, 24, 78, 50, 62, 78, 20, 62, 78, 50, 24, 32, 20, 62, 32, 50, 24, 78, 20, 62, 32, 50, 62, 78, 50, 62, 78, 50, 62, 32, 20, 62, 32, 50, 24, 78, 20, 24, 78, 50, 62, 32, 20, 62, 78, 50, 62, 78, 20, 62, 32, 20, 62, 32, 50, 24, 32, 50, 24, 32, 20, 62, 32, 20, 24, 32, 20, 24, 78, 20, 24, 78, 50, 62, 78, 20, 62, 32, 50, 62, 78, 50, 24, 32, 50, 24, 78, 20, 62, 32, 50, 24, 78, 20, 24, 78, 50, 62, 78, 50, 62, 32, 50, 62, 78, 20, 24, 32, 20, 24, 32, 20, 62, 78, 50, 24, 78, 50, 62, 78, 20, 62, 78, 20, 62, 78, 20, 24, 32, 20, 24, 78, 50, 62, 78, 50, 24, 32, 20, 24, 32, 20, 24, 32, 20, 62, 78, 50, 24, 32, 50, 24, 78, 20, 24, 78, 50, 24, 32, 20, 62, 32, 20, 62, 32, 50, 62, 78, 50, 62, 32]);
trans_cost   = [9.95, 8.52, 9.4, 5.44, 8.46, 9.36, 10.65, 10.02, 9.04, 3.65, 3.64, 8.52, 10.93, 7.17, 10.55, 9.56, 9.79, 8.95, 6.92, 8.74, 7.57, 8.15, 5.96, 8.1, 6.73, 7.35, 5.1, 1.77, 9.14, 7.81, 5.61, 9.25, 5.24, 5.28, 7.41, 7.4, 4.26, 12.85, 7.22, 7.37, 7.5, 9.63, 8.11, 5.86, 6.6, 9.43, 5.87, 6.11, 7.47, 11.08, 9.8, 4.14, 10.81, 8.76, 10.78, 5.15, 10.66, 7.65, 6.83, 6.02, 9.06, 7.74, 8.94, 9.78, 9.61, 6.59, 6.73, 7.36, 6.96, 7.28, 7.18, 6.61, 3.81, 3.5, 6.64, 6.66, 12.66, 8.75, 7.17, 6.1, 7.0, 6.03, 9.42, 7.11, 5.55, 11.14, 5.51, 6.19, 7.96, 9.43, 6.3, 5.59, 7.01, 7.86, 8.64, 7.78, 11.38, 10.05, 10.74, 9.41, 7.57, 8.94, 10.14, 9.44, 4.55, 5.1, 7.37, 9.78, 8.58, 6.43, 8.05, 8.58, 7.87, 10.29, 6.43, 11.0, 6.68, 6.03, 3.36, 6.38, 9.8, 8.07, 9.21, 7.98, 3.8, 6.11, 7.63, 11.66, 8.16, 9.37, 8.04, 6.65, 2.71, 8.27, 7.95, 8.34, 5.25, 6.08, 7.24, 9.48, 8.82, 10.01, 9.9, 9.51, 6.75, 10.5, 5.56, 9.47, 8.21, 9.63, 8.82, 7.45, 10.94, 10.76, 6.1, 6.18, 8.52, 4.27, 6.63, 11.61, 5.16, 8.66, 9.33, 9.5, 8.48, 5.53, 6.44, 7.34, 8.48, 6.85, 6.01, 11.86, 10.54, 6.85, 10.4, 11.25, 11.03, 6.16, 8.66, 10.73, 6.16, 9.93, 10.16, 12.24, 7.2, 8.06, 7.23, 6.92, 9.93, 6.5, 9.5, 7.5, 9.04, 5.12, 8.67, 8.51, 11.98, 4.64, 7.02, 12.1, 10.0, 10.27, 10.58, 7.05, 6.0, 9.99, 7.39, 8.4, 3.67, 9.58, 8.97, 6.42, 12.75, 7.19, 10.83, 8.89, 7.07, 5.78, 6.79, 6.01, 8.7, 9.87, 8.09, 11.89, 6.61, 7.32, 7.4, 8.13, 10.77, 7.26, 8.27, 8.97, 9.28, 6.77, 4.99, 3.88, 8.34, 11.53, 9.59, 8.18, 8.73];
